
Gurobi 11.0.1 (win64) logging started Sat Mar 16 17:44:48 2024

Set parameter LogFile to value "res/logfile/sorrell3log.txt"
Gurobi Optimizer version 11.0.1 build v11.0.1rc0 (win64 - Windows 11.0 (22621.2))

CPU model: AMD Ryzen Threadripper PRO 5975WX 32-Cores, instruction set [SSE2|AVX|AVX2]
Thread count: 32 physical cores, 64 logical processors, using up to 10 threads

Optimize a model with 197501 rows, 1024 columns and 1205504 nonzeros
Model fingerprint: 0x2d2a7a3f
Variable types: 0 continuous, 1024 integer (1024 binary)
Coefficient statistics:
  Matrix range     [1e+00, 1e+00]
  Objective range  [1e+00, 1e+00]
  Bounds range     [1e+00, 1e+00]
  RHS range        [1e+00, 1e+00]
Found heuristic solution: objective -11.0000000
Presolve removed 191443 rows and 0 columns
Presolve time: 0.35s
Presolved: 6058 rows, 1024 columns, 95603 nonzeros
Crushed 27184 out of 28339 user cuts to presolved model
Variable types: 0 continuous, 1024 integer (1024 binary)

Root relaxation: objective -2.465482e+01, 3051 iterations, 0.73 seconds (1.26 work units)

    Nodes    |    Current Node    |     Objective Bounds      |     Work
 Expl Unexpl |  Obj  Depth IntInf | Incumbent    BestBd   Gap | It/Node Time

     0     0  -24.65482    0  257  -11.00000  -24.65482   124%     -    1s
H    0     0                     -12.0000000  -24.65482   105%     -    1s
H    0     0                     -13.0000000  -24.65482  89.7%     -    2s
     0     0  -22.52759    0  270  -13.00000  -22.52759  73.3%     -    3s
H    0     0                     -14.0000000  -22.52759  60.9%     -    3s
     0     0  -22.03895    0  299  -14.00000  -22.03895  57.4%     -    4s
     0     0  -22.02217    0  295  -14.00000  -22.02217  57.3%     -    4s
     0     0  -22.02187    0  299  -14.00000  -22.02187  57.3%     -    4s
     0     0  -21.23924    0  310  -14.00000  -21.23924  51.7%     -    5s
     0     0  -21.23511    0  302  -14.00000  -21.23511  51.7%     -    6s
     0     0  -21.23360    0  312  -14.00000  -21.23360  51.7%     -    6s
     0     0  -21.23349    0  308  -14.00000  -21.23349  51.7%     -    6s
     0     0  -20.82138    0  332  -14.00000  -20.82138  48.7%     -    7s
H    0     0                     -15.0000000  -20.82138  38.8%     -    7s
     0     0  -20.81452    0  333  -15.00000  -20.81452  38.8%     -    7s
     0     0  -20.81369    0  342  -15.00000  -20.81369  38.8%     -    7s
     0     0  -20.71754    0  339  -15.00000  -20.71754  38.1%     -    8s
     0     0  -20.70651    0  344  -15.00000  -20.70651  38.0%     -    8s
     0     0  -20.70521    0  352  -15.00000  -20.70521  38.0%     -    8s
     0     0  -20.70494    0  352  -15.00000  -20.70494  38.0%     -    8s
     0     0  -20.64129    0  354  -15.00000  -20.64129  37.6%     -    8s
     0     0  -20.63479    0  365  -15.00000  -20.63479  37.6%     -    9s
     0     0  -20.63281    0  375  -15.00000  -20.63281  37.6%     -    9s
     0     0  -20.63239    0  374  -15.00000  -20.63239  37.5%     -    9s
     0     0  -20.57496    0  355  -15.00000  -20.57496  37.2%     -    9s
     0     0  -20.55909    0  362  -15.00000  -20.55909  37.1%     -    9s
     0     0  -20.55702    0  369  -15.00000  -20.55702  37.0%     -    9s
     0     0  -20.55606    0  362  -15.00000  -20.55606  37.0%     -    9s
     0     0  -20.45735    0  358  -15.00000  -20.45735  36.4%     -   10s
     0     0  -20.44831    0  364  -15.00000  -20.44831  36.3%     -   10s
     0     0  -20.44700    0  363  -15.00000  -20.44700  36.3%     -   10s
     0     0  -20.44635    0  371  -15.00000  -20.44635  36.3%     -   10s
     0     0  -20.37488    0  356  -15.00000  -20.37488  35.8%     -   11s
     0     0  -20.36494    0  365  -15.00000  -20.36494  35.8%     -   11s
     0     0  -20.36371    0  368  -15.00000  -20.36371  35.8%     -   11s
     0     0  -20.36336    0  372  -15.00000  -20.36336  35.8%     -   11s
     0     0  -20.30284    0  366  -15.00000  -20.30284  35.4%     -   11s
     0     0  -20.29041    0  368  -15.00000  -20.29041  35.3%     -   12s
     0     0  -20.28707    0  368  -15.00000  -20.28707  35.2%     -   12s
     0     0  -20.28657    0  370  -15.00000  -20.28657  35.2%     -   12s
     0     0  -20.19208    0  351  -15.00000  -20.19208  34.6%     -   12s
     0     0  -20.17767    0  356  -15.00000  -20.17767  34.5%     -   13s
     0     0  -20.17412    0  361  -15.00000  -20.17412  34.5%     -   13s
     0     0  -20.17346    0  365  -15.00000  -20.17346  34.5%     -   13s
     0     0  -20.12160    0  361  -15.00000  -20.12160  34.1%     -   13s
     0     0  -20.11384    0  372  -15.00000  -20.11384  34.1%     -   13s
     0     0  -20.11145    0  374  -15.00000  -20.11145  34.1%     -   13s
     0     0  -20.11131    0  374  -15.00000  -20.11131  34.1%     -   13s
     0     0  -20.06193    0  356  -15.00000  -20.06193  33.7%     -   14s
     0     0  -20.05439    0  363  -15.00000  -20.05439  33.7%     -   14s
     0     0  -20.05254    0  369  -15.00000  -20.05254  33.7%     -   14s
     0     0  -20.05206    0  373  -15.00000  -20.05206  33.7%     -   14s
     0     0  -20.01116    0  359  -15.00000  -20.01116  33.4%     -   15s
     0     0  -20.00262    0  364  -15.00000  -20.00262  33.4%     -   15s
     0     0  -20.00207    0  365  -15.00000  -20.00207  33.3%     -   15s
     0     0  -19.96364    0  368  -15.00000  -19.96364  33.1%     -   15s
     0     0  -19.95983    0  369  -15.00000  -19.95983  33.1%     -   15s
     0     0  -19.95869    0  370  -15.00000  -19.95869  33.1%     -   15s
     0     0  -19.93985    0  374  -15.00000  -19.93985  32.9%     -   16s
     0     0  -19.93527    0  377  -15.00000  -19.93527  32.9%     -   16s
     0     0  -19.93414    0  384  -15.00000  -19.93414  32.9%     -   16s
     0     0  -19.89244    0  367  -15.00000  -19.89244  32.6%     -   17s
     0     0  -19.88357    0  362  -15.00000  -19.88357  32.6%     -   17s
     0     0  -19.88215    0  369  -15.00000  -19.88215  32.5%     -   17s
     0     0  -19.85681    0  376  -15.00000  -19.85681  32.4%     -   17s
     0     0  -19.85162    0  380  -15.00000  -19.85162  32.3%     -   18s
     0     0  -19.85052    0  388  -15.00000  -19.85052  32.3%     -   18s
     0     0  -19.83085    0  375  -15.00000  -19.83085  32.2%     -   18s
     0     0  -19.82562    0  379  -15.00000  -19.82562  32.2%     -   18s
     0     0  -19.82454    0  391  -15.00000  -19.82454  32.2%     -   18s
     0     0  -19.79697    0  378  -15.00000  -19.79697  32.0%     -   19s
     0     0  -19.79299    0  385  -15.00000  -19.79299  32.0%     -   19s
     0     0  -19.79144    0  386  -15.00000  -19.79144  31.9%     -   19s
     0     0  -19.77126    0  377  -15.00000  -19.77126  31.8%     -   19s
     0     0  -19.76800    0  385  -15.00000  -19.76800  31.8%     -   20s
     0     0  -19.76708    0  385  -15.00000  -19.76708  31.8%     -   20s
     0     0  -19.75765    0  375  -15.00000  -19.75765  31.7%     -   20s
     0     0  -19.75676    0  375  -15.00000  -19.75676  31.7%     -   20s
     0     2  -19.75676    0  375  -15.00000  -19.75676  31.7%     -   26s
    25    36  -19.74207    5  370  -15.00000  -19.74273  31.6%   913   30s
H   78    89                     -16.0000000  -19.74273  23.4%   595   33s
    88    99  -19.73183   10  370  -16.00000  -19.74273  23.4%   553   35s
   222   245  -19.71882   17  360  -16.00000  -19.74273  23.4%   333   40s
   781   746  -19.65722   40  351  -16.00000  -19.74273  23.4%   196   45s
  1208  1153  -19.58158   61  334  -16.00000  -19.74273  23.4%   187   50s
  1712  1642  -19.46667   83  335  -16.00000  -19.74273  23.4%   181   59s
  1928  1888  -19.42868   91  333  -16.00000  -19.74273  23.4%   177   61s
  2693  2371  -19.29819    7  418  -16.00000  -19.74273  23.4%   158   97s
  2695  2372  -17.33851   68  347  -16.00000  -19.74273  23.4%   157  109s
  2696  2373  -18.25852  138  366  -16.00000  -19.74273  23.4%   157  111s
  2697  2374  -18.72189   76  383  -16.00000  -19.73463  23.3%   157  116s
  2699  2375  -19.60212   57  379  -16.00000  -19.69164  23.1%   157  124s
  2701  2376  -18.07069   30  405  -16.00000  -19.68409  23.0%   157  131s
  2703  2378  -18.87838   64  407  -16.00000  -19.67754  23.0%   157  139s
  2705  2379  -18.74948   86  404  -16.00000  -19.65943  22.9%   157  148s
  2707  2380  -19.38076  104  402  -16.00000  -19.65023  22.8%   157  155s
  2719  2390  -18.91756   23  418  -16.00000  -19.64401  22.8%   161  164s
  2721  2391  -17.30490   77  347  -16.00000  -19.64401  22.8%   160  170s
  2724  2393  -17.11356  104  405  -16.00000  -19.64396  22.8%   160  175s
  2739  2403  -19.52642   74  415  -16.00000  -19.63310  22.7%   159  180s
  2745  2407  -17.17296  145  417  -16.00000  -19.63264  22.7%   159  197s
  2748  2414  -19.63264   20  408  -16.00000  -19.63264  22.7%   164  202s
  2780  2438  -18.77425   23  242  -16.00000  -19.62540  22.7%   175  207s
  2800  2446  -18.82901   24  232  -16.00000  -19.62414  22.7%   180  218s
  2824  2452  -18.58714   25  225  -16.00000  -19.62337  22.6%   184  220s
  2881  2468  -18.33126   27  197  -16.00000  -19.61582  22.6%   194  225s
  2925  2477  -18.35069   28  201  -16.00000  -19.61112  22.6%   199  236s
  3037  2508  -19.60124   31  379  -16.00000  -19.60124  22.5%   212  240s
  3258  2516  -19.58880   35  384  -16.00000  -19.58880  22.4%   227  245s
  3434  2511  -19.57536   38  381  -16.00000  -19.57536  22.3%   234  250s
  3593  2614  -19.56138   42  377  -16.00000  -19.56138  22.3%   248  255s
  4084  2796  -19.53724   47  362  -16.00000  -19.53724  22.1%   258  260s
  4591  2974  -19.51388   51  358  -16.00000  -19.51388  22.0%   265  265s
  5260  3138  -18.62664   55  246  -16.00000  -19.49779  21.9%   265  270s
  6108  3415  -19.46027   61  367  -16.00000  -19.49779  21.9%   264  275s
  6705  3556  -19.41835   66  357  -16.00000  -19.49779  21.9%   266  281s
  7235  3945  -19.39583   71  357  -16.00000  -19.49779  21.9%   266  286s
  7744  4170  -19.37209   75  357  -16.00000  -19.49779  21.9%   266  290s
  8484  4387  -19.33669   82  355  -16.00000  -19.49779  21.9%   271  297s
  8966  4572  -19.31729   86  367  -16.00000  -19.49779  21.9%   270  301s
  9461  4811  -19.28401   91  364  -16.00000  -19.49779  21.9%   272  306s
 10261  5265  -19.26733   96  358  -16.00000  -19.49779  21.9%   273  311s
 11150  5699  -19.24401  102  357  -16.00000  -19.49779  21.9%   272  317s
 11421  6148  -17.62201  104  185  -16.00000  -19.49779  21.9%   271  320s
 12338  6661  -19.20315  111  338  -16.00000  -19.49779  21.9%   270  325s
 13397  7017  -18.15855  117  214  -16.00000  -19.49779  21.9%   270  336s
 13893  7609  -19.13854  122  353  -16.00000  -19.49779  21.9%   271  343s
 14458  7806  -19.11212  126  345  -16.00000  -19.49779  21.9%   271  347s
 14819  8127  -19.08916  129  334  -16.00000  -19.49779  21.9%   270  350s
 16047  8900  -19.01498  138  333  -16.00000  -19.49779  21.9%   270  358s
 16702  9035  -18.98813  143  329  -16.00000  -19.49779  21.9%   271  372s
 16993 10111  -18.95622  150  331  -16.00000  -19.49779  21.9%   271  386s
 19560 10266  -18.80878  170  325  -16.00000  -19.49779  21.9%   272  391s
 19938 10674  -18.77529  174  323  -16.00000  -19.49779  21.9%   271  395s
 20807 11153  -18.72379  181  324  -16.00000  -19.49779  21.9%   271  401s
 21773 11626  -18.69122  188  317  -16.00000  -19.49779  21.9%   271  405s
 22698 12108  -18.65750  195  306  -16.00000  -19.49779  21.9%   271  410s
 23586 12608  -18.59798  203  297  -16.00000  -19.49779  21.9%   271  416s
 24581 13228  -18.55271  211  295  -16.00000  -19.49779  21.9%   270  421s
 25589 13973  -18.48946  220  296  -16.00000  -19.49779  21.9%   270  426s
 26860 14634  -18.40520  229  294  -16.00000  -19.49779  21.9%   268  432s
 28003 15008  -18.34628  240  290  -16.00000  -19.49779  21.9%   267  438s
 29024 15164  -18.28289  250  282  -16.00000  -19.49779  21.9%   267  458s
 29498 15197  -17.21098  250  174  -16.00000  -19.49779  21.9%   267  475s
 29630 15902  -17.23646  251  187  -16.00000  -19.49779  21.9%   267  481s
 30781 16299     cutoff  261       -16.00000  -19.49779  21.9%   267  487s
 31866 16946  -18.07102  273  266  -16.00000  -19.49779  21.9%   267  493s
 33050 16947  -17.80068  127  418  -16.00000  -19.49779  21.9%   267  790s
 33052 16948  -17.31588   47  347  -16.00000  -19.49779  21.9%   267  801s
 33054 16950  -17.28079   66  387  -16.00000  -19.49779  21.9%   267  809s
 33055 16950  -17.15727   67  402  -16.00000  -19.49779  21.9%   267  810s
 33056 16951  -17.46177  163  414  -16.00000  -19.49779  21.9%   267  822s
 33058 16952  -17.58369   60  419  -16.00000  -19.49779  21.9%   267  837s
 33060 16954  -17.41390   67  430  -16.00000  -19.49779  21.9%   267  853s
 33062 16955  -17.26236   78  429  -16.00000  -19.49779  21.9%   267  870s
 33064 16956  -17.80161  101  437  -16.00000  -19.49779  21.9%   267  884s
 33066 16958  -17.39257   32  433  -16.00000  -19.49779  21.9%   267  900s
 33068 16959  -17.57071   75  439  -16.00000  -19.49779  21.9%   267  916s
 33070 16960  -17.13335   83  437  -16.00000  -19.49779  21.9%   267  929s
 33071 16961  -17.48417   63  433  -16.00000  -19.49779  21.9%   267  941s
 33072 16962  -17.11032   62  433  -16.00000  -19.49779  21.9%   267  949s
 33073 16962  -17.69503  148  433  -16.00000  -19.49779  21.9%   267  963s
 33074 16966  -19.49779   28  409  -16.00000  -19.49779  21.9%   267  965s
 33088 16983  -19.49779   31  399  -16.00000  -19.49779  21.9%   268  970s
 33138 17013  -19.49779   34  392  -16.00000  -19.49779  21.9%   269  975s
 33186 17031  -19.49779   36  385  -16.00000  -19.49779  21.9%   270  980s
 33212 17040  -19.49779   37  393  -16.00000  -19.49779  21.9%   270  990s
 33277 17072  -18.46642   39  234  -16.00000  -19.49779  21.9%   271 1001s
 33339 17107  -18.38756   41  219  -16.00000  -19.49779  21.9%   272 1005s
 33476 17157  -19.49779   45  377  -16.00000  -19.49779  21.9%   274 1010s
 33668 17196  -19.49779   50  365  -16.00000  -19.49779  21.9%   275 1016s
 33826 17222  -19.49779   53  384  -16.00000  -19.49779  21.9%   276 1020s
 34066 17226  -19.48986   57  380  -16.00000  -19.48986  21.8%   278 1026s
 34253 17258  -19.48158   60  385  -16.00000  -19.48158  21.8%   279 1030s
 34472 17295  -19.46238   63  378  -16.00000  -19.46238  21.6%   280 1035s
 34736 17297  -19.44562   67  363  -16.00000  -19.44562  21.5%   281 1042s
 34912 17344  -19.43057   70  361  -16.00000  -19.43057  21.4%   282 1046s
 35127 17417  -19.41098   73  369  -16.00000  -19.41098  21.3%   283 1050s
 35399 17525  -19.38652   77  370  -16.00000  -19.38652  21.2%   283 1055s
 36001 17700  -19.35825   83  360  -16.00000  -19.35825  21.0%   284 1062s
 36289 17790  -18.09009   85  201  -16.00000  -19.32911  20.8%   285 1065s
 37139 17746  -19.27588   92  363  -16.00000  -19.27588  20.5%   286 1072s
 37635 17936  -19.25415   97  364  -16.00000  -19.25415  20.3%   288 1077s
 38010 17960  -17.95315   99  202  -16.00000  -19.23172  20.2%   288 1080s
 38797 18148  -19.20498  105  393  -16.00000  -19.20498  20.0%   289 1086s
 39702 18253  -18.21508  111  223  -16.00000  -19.18851  19.9%   289 1092s
 40151 18454  -19.16428  114  368  -16.00000  -19.18851  19.9%   290 1095s
 41380 18847  -18.19408  120  211  -16.00000  -19.18851  19.9%   289 1102s
 42043 18895  -18.00541  123  230  -16.00000  -19.18851  19.9%   288 1105s
 43274 19313  -19.05290  131  348  -16.00000  -19.18851  19.9%   288 1113s
 43987 19353  -19.03806  135  354  -16.00000  -19.18851  19.9%   287 1116s
 44647 19609  -19.00554  139  346  -16.00000  -19.18851  19.9%   287 1120s
 45448 19732  -18.97525  143  351  -16.00000  -19.18851  19.9%   287 1125s
 46812 20026  -17.61918  151  206  -16.00000  -19.18851  19.9%   286 1133s
 47642 20186  -18.85219  156  351  -16.00000  -19.18851  19.9%   286 1138s
 48510 20320  -18.81256  161  344  -16.00000  -19.18851  19.9%   285 1143s
 49264 20525  -18.77994  166  343  -16.00000  -19.18851  19.9%   286 1154s
 50313 20520  -17.84096  172  231  -16.00000  -19.18851  19.9%   286 1158s
 51136 20647  -18.69496  177  333  -16.00000  -19.18851  19.9%   285 1162s
 51904 20714  -18.63177  182  328  -16.00000  -19.18851  19.9%   285 1166s
 52609 20891  -18.58746  187  324  -16.00000  -19.18851  19.9%   285 1170s
 53444 21059  -17.41029  192  200  -16.00000  -19.18851  19.9%   285 1175s
 54217 21290  -18.51157  198  306  -16.00000  -19.18851  19.9%   284 1180s
 55095 21331  -18.46768  204  298  -16.00000  -19.18851  19.9%   284 1185s
 55927 21296  -18.42126  211  303  -16.00000  -19.18851  19.9%   284 1196s
 56768 21263  -18.37442  218  308  -16.00000  -19.18851  19.9%   284 1201s
 57591 21209  -18.31146  226  304  -16.00000  -19.18851  19.9%   285 1207s
 58428 21198  -18.25860  235  298  -16.00000  -19.18851  19.9%   285 1213s
 59371 21120  -18.17895  245  278  -16.00000  -19.18851  19.9%   286 1219s
 60272 21051  -18.10609  255  277  -16.00000  -19.18851  19.9%   286 1225s
 61168 21068  -18.00205  264  262  -16.00000  -19.18851  19.9%   287 1231s
 62168 21026  -17.88757  277  259  -16.00000  -19.18851  19.9%   287 1237s
 63131 20965  -17.73846  290  268  -16.00000  -19.18851  19.9%   288 1243s
 64066 20910  -17.63670  304  260  -16.00000  -19.18851  19.9%   288 1249s
 64987 20654  -17.47520  321  256  -16.00000  -19.18851  19.9%   288 1255s
 65759 20727  -17.26012  346  237  -16.00000  -17.96687  12.3%   290 1274s
 66862 20661  -17.45452  140  214  -16.00000  -17.92414  12.0%   290 1284s
 68530 20228  -17.62326   83  186  -16.00000  -17.90289  11.9%   290 1291s
 69628 19968  -17.37986   40  148  -16.00000  -17.86656  11.7%   291 1299s
 70802 19563     cutoff  104       -16.00000  -17.83859  11.5%   292 1305s
 71736 19197     cutoff  159       -16.00000  -17.80443  11.3%   293 1312s
 72742 18917     cutoff   98       -16.00000  -17.76319  11.0%   294 1319s
 73865 18503  -17.51009  138  200  -16.00000  -17.74515  10.9%   294 1329s
 74382 18169  -17.09263  101  162  -16.00000  -17.72750  10.8%   294 1336s
 75420 17622     cutoff   86       -16.00000  -17.69387  10.6%   295 1343s
 76452 16919     cutoff  163       -16.00000  -17.66187  10.4%   296 1350s
 77479 16419     cutoff   81       -16.00000  -17.62613  10.2%   297 1358s
 78569 15836     cutoff  175       -16.00000  -17.60079  10.0%   297 1364s
 79182 15632  -17.07925  111  164  -16.00000  -17.59718  10.0%   298 1365s
 79590 15040     cutoff   70       -16.00000  -17.56644  9.79%   298 1372s
 80677 14350  -17.28151  139  177  -16.00000  -17.53161  9.57%   298 1378s
 81860 13372  -17.30958   97  192  -16.00000  -17.50750  9.42%   298 1385s
 82939 12418     cutoff   99       -16.00000  -17.46886  9.18%   298 1392s
 84189 11454     cutoff   74       -16.00000  -17.43160  8.95%   298 1399s
 85366 10657  -17.09648   41  140  -16.00000  -17.40229  8.76%   298 1405s
 86710  9628     cutoff   52       -16.00000  -17.36558  8.53%   297 1412s
 88066  8521     cutoff   89       -16.00000  -17.32994  8.31%   296 1418s
 89473  7299     cutoff  137       -16.00000  -17.29826  8.11%   294 1424s
 91004  5920     cutoff   82       -16.00000  -17.26023  7.88%   293 1429s
 92683  4391     cutoff   67       -16.00000  -17.22233  7.64%   290 1434s
 94441  2705     cutoff  190       -16.00000  -17.19015  7.44%   287 1439s
 96302   805     cutoff   68       -16.00000  -17.14688  7.17%   284 1443s

Cutting planes:
  Clique: 863
  MIR: 48
  Flow cover: 39
  Zero half: 1

Explored 99183 nodes (27546902 simplex iterations) in 1445.30 seconds (3817.32 work units)
Thread count was 10 (of 64 available processors)

Solution count 6: -16 -15 -14 ... -11
No other solutions better than -16

Optimal solution found (tolerance 1.00e-04)
Best objective -1.600000000000e+01, best bound -1.600000000000e+01, gap 0.0000%

User-callback calls 237735, time in user-callback 0.13 sec
